id: 268
name: dbir1
group: meszaros/misc
method: 2

Gurobi 7.0.2 (linux64, Matlab) logging started Mon Mar 26 17:04:00 2018


Gurobi 7.0.2 (linux64) logging started Mon Mar 26 17:04:00 2018

Optimize a model with 18804 rows, 27355 columns and 1058605 nonzeros
Coefficient statistics:
  Matrix range     [1e+00, 1e+05]
  Objective range  [1e+00, 1e+00]
  Bounds range     [0e+00, 0e+00]
  RHS range        [1e+00, 1e+05]
Presolve removed 11654 rows and 2493 columns
Presolve time: 0.21s
Presolved: 7150 rows, 24862 columns, 994828 nonzeros

Ordering time: 0.01s

Barrier statistics:
 AA' NZ     : 1.108e+06
 Factor NZ  : 2.407e+06 (roughly 30 MBytes of memory)
 Factor Ops : 1.784e+09 (less than 1 second per iteration)
 Threads    : 4

                  Objective                Residual
Iter       Primal          Dual         Primal    Dual     Compl     Time
   0  -2.26490783e+09 -1.32179484e+07  4.18e+03 0.00e+00  3.65e+05     1s
   1  -8.00916015e+08 -6.65037125e+07  1.65e+03 7.78e+04  1.42e+05     1s
   2  -1.49576959e+08 -7.55078401e+07  3.05e+02 8.78e+03  2.72e+04     1s
   3  -2.98716882e+07 -4.73801863e+07  4.63e+01 1.55e+03  4.74e+03     1s
   4  -1.07202775e+07 -2.67492307e+07  6.69e+00 2.60e+02  1.02e+03     1s
   5  -8.26296252e+06 -1.61203010e+07  9.63e-01 7.22e+01  2.81e+02     1s
   6  -8.04388227e+06 -1.11555459e+07  1.53e-01 1.47e+01  8.98e+01     1s
   7  -8.07630957e+06 -9.10374118e+06  4.62e-02 4.23e+00  2.86e+01     1s
   8  -8.08972039e+06 -8.35266129e+06  1.54e-02 1.16e-10  7.35e+00     1s
   9  -8.09968601e+06 -8.15273438e+06  5.58e-03 1.16e-10  1.55e+00     1s
  10  -8.10332785e+06 -8.11065682e+06  2.56e-03 5.24e-10  2.68e-01     1s
  11  -8.10546951e+06 -8.10892566e+06  9.20e-04 2.33e-10  1.18e-01     1s
  12  -8.10645051e+06 -8.10779816e+06  1.81e-04 1.16e-10  4.05e-02     1s
  13  -8.10670632e+06 -8.10670818e+06  3.81e-07 3.73e-09  5.97e-05     1s
  14  -8.10670700e+06 -8.10670700e+06  1.35e-10 6.66e-09  4.08e-08     2s
  15  -8.10670700e+06 -8.10670700e+06  2.29e-13 1.00e-08  7.24e-11     2s

Barrier solved model in 15 iterations and 1.63 seconds
Optimal objective -8.10670700e+06

Crossover log...

       0 DPushes remaining with DInf 0.0000000e+00                 2s

   17544 PPushes remaining with PInf 0.0000000e+00                 2s
       0 PPushes remaining with PInf 0.0000000e+00                 2s

  Push phase complete: Pinf 0.0000000e+00, Dinf 0.0000000e+00      2s

Iteration    Objective       Primal Inf.    Dual Inf.      Time
   17707   -8.1067070e+06   0.000000e+00   0.000000e+00      2s
   17707   -8.1067070e+06   0.000000e+00   0.000000e+00      2s

Solved in 17707 iterations and 1.83 seconds
Optimal objective -8.106707000e+06
status: OPTIMAL
